solution status: time limit reached
objective value:                         153906.19463
y#2                                                 1 	(obj:5700)
y#6                                                 1 	(obj:5700)
y#8                                                 1 	(obj:5700)
y#12                                                1 	(obj:5700)
y#14                                                1 	(obj:5700)
y#15                                                1 	(obj:5700)
y#17                                                1 	(obj:5700)
y#18                                                1 	(obj:5700)
y#19                                                1 	(obj:5700)
y#20                                                1 	(obj:5700)
y#22                                                1 	(obj:5700)
y#23                                                1 	(obj:5700)
y#24                                                1 	(obj:5700)
y#25                                                1 	(obj:5700)
y#26                                                1 	(obj:5700)
y#27                                                1 	(obj:5700)
y#28                                                1 	(obj:5700)
y#29                                                1 	(obj:5700)
y#31                                                1 	(obj:5700)
y#32                                                1 	(obj:5700)
y#33                                                1 	(obj:5700)
y#34                                                1 	(obj:5700)
y#36                                                1 	(obj:5700)
y#37                                                1 	(obj:5700)
y#38                                                1 	(obj:5700)
y#39                                                1 	(obj:5700)
y#40                                                1 	(obj:5700)
x#1#28                                              1 	(obj:0.01309)
x#2#15                                              1 	(obj:0.01122)
x#3#25                                              1 	(obj:0.02754)
x#4#15                                              1 	(obj:0.01088)
x#5#17                                              1 	(obj:0.0068)
x#6#38                                              1 	(obj:0.01598)
x#7#25                                              1 	(obj:0.04012)
x#8#18                                              1 	(obj:0.01853)
x#9#22                                              1 	(obj:0.00578)
x#10#27                                             1 	(obj:0.02142)
x#11#27                                             1 	(obj:0.04352)
x#12#2                                              1 	(obj:0.0374)
x#13#12                                             1 	(obj:0.00901)
x#14#6                                              1 	(obj:0.01173)
x#15#20                                             1 	(obj:0.00459)
x#16#6                                              1 	(obj:0.01224)
x#17#38                                             1 	(obj:0.01462)
x#18#40                                             1 	(obj:0.00476)
x#19#33                                             1 	(obj:0.017)
x#20#31                                             1 	(obj:0.02465)
x#21#23                                             1 	(obj:0.01581)
x#22#15                                             1 	(obj:0.01105)
x#23#31                                             1 	(obj:0.00612)
x#24#36                                             1 	(obj:0.00374)
x#25#19                                             1 	(obj:0.01717)
x#26#14                                             1 	(obj:0.03468)
x#27#2                                              1 	(obj:0.01802)
x#28#32                                             1 	(obj:0.02652)
x#29#18                                             1 	(obj:0.00663)
x#30#8                                              1 	(obj:0.0578)
x#31#28                                             1 	(obj:0.03876)
x#32#17                                             1 	(obj:0.00204)
x#33#40                                             1 	(obj:0.02329)
x#34#33                                             1 	(obj:0.00697)
x#35#32                                             1 	(obj:0.00476)
x#36#12                                             1 	(obj:0.0119)
x#37#39                                             1 	(obj:0.03587)
x#38#38                                             1 	(obj:0.01955)
x#39#12                                             1 	(obj:0.01649)
x#40#36                                             1 	(obj:0.00833)
x#41#34                                             1 	(obj:0.01751)
x#42#18                                             1 	(obj:0.01309)
x#43#39                                             1 	(obj:0.04097)
x#44#12                                             1 	(obj:0.01683)
x#45#20                                             1 	(obj:0.01292)
x#46#8                                              1 	(obj:0.00476)
x#47#22                                             1 	(obj:0.01564)
x#48#19                                             1 	(obj:0.01904)
x#49#19                                             1 	(obj:0.0204)
x#50#36                                             1 	(obj:0.02176)
x#51#23                                             1 	(obj:0.01003)
x#52#23                                             1 	(obj:0.0085)
x#53#25                                             1 	(obj:0.01224)
x#54#2                                              1 	(obj:0.02873)
x#55#40                                             1 	(obj:0.01853)
x#56#17                                             1 	(obj:0.03689)
x#57#40                                             1 	(obj:0.0153)
x#58#28                                             1 	(obj:0.08687)
x#59#24                                             1 	(obj:0.00323)
x#60#28                                             1 	(obj:0.03179)
x#61#24                                             1 	(obj:0.02771)
x#62#40                                             1 	(obj:0.00765)
x#63#15                                             1 	(obj:0.0051)
x#64#23                                             1 	(obj:0.02992)
x#65#20                                             1 	(obj:0.01088)
x#66#8                                              1 	(obj:0.00306)
x#67#26                                             1 	(obj:0.01717)
x#68#39                                             1 	(obj:0.02499)
x#69#28                                             1 	(obj:0.07293)
x#70#39                                             1 	(obj:0.02159)
x#71#27                                             1 	(obj:0.03876)
x#72#25                                             1 	(obj:0.02771)
x#73#14                                             1 	(obj:0.04862)
x#74#36                                             1 	(obj:0.01309)
x#75#32                                             1 	(obj:0.00748)
x#76#33                                             1 	(obj:0.00697)
x#77#26                                             1 	(obj:0.0068)
x#78#22                                             1 	(obj:0.01156)
x#79#31                                             1 	(obj:0.00901)
x#80#27                                             1 	(obj:0.00391)
x#81#14                                             1 	(obj:0.0289)
x#82#6                                              1 	(obj:0.00782)
x#83#12                                             1 	(obj:0.03383)
x#84#36                                             1 	(obj:0.01343)
x#85#17                                             1 	(obj:0.00612)
x#86#39                                             1 	(obj:0.01853)
x#87#24                                             1 	(obj:0.00799)
x#88#34                                             1 	(obj:0.01462)
x#89#22                                             1 	(obj:0.00459)
x#90#36                                             1 	(obj:0.01904)
x#91#14                                             1 	(obj:0.03536)
x#92#23                                             1 	(obj:0.03434)
x#93#32                                             1 	(obj:0.03094)
x#94#34                                             1 	(obj:0.01428)
x#95#36                                             1 	(obj:0.01173)
x#96#19                                             1 	(obj:0.01785)
x#97#19                                             1 	(obj:0.03502)
x#98#8                                              1 	(obj:0.01955)
x#99#6                                              1 	(obj:0.01088)
x#100#17                                            1 	(obj:0.02499)
x#101#38                                            1 	(obj:0.00833)
x#102#29                                            1 	(obj:0.0051)
x#103#12                                            1 	(obj:0.02788)
x#104#22                                            1 	(obj:0.00646)
x#105#25                                            1 	(obj:0.0391)
x#106#18                                            1 	(obj:0.02312)
x#107#20                                            1 	(obj:0.00357)
x#108#2                                             1 	(obj:0.03706)
x#109#20                                            1 	(obj:0.0051)
x#110#8                                             1 	(obj:0.01887)
x#111#31                                            1 	(obj:0.00306)
x#112#2                                             1 	(obj:0.00884)
x#113#23                                            1 	(obj:0.01496)
x#114#27                                            1 	(obj:0.00238)
x#115#34                                            1 	(obj:0.03706)
x#116#20                                            1 	(obj:0.02465)
x#117#26                                            1 	(obj:0.00918)
x#118#33                                            1 	(obj:0.0119)
x#119#38                                            1 	(obj:0.00714)
x#120#37                                            1 	(obj:0.0085)
x#121#34                                            1 	(obj:0.00969)
x#122#6                                             1 	(obj:0.00068)
x#123#24                                            1 	(obj:0.02176)
x#124#29                                            1 	(obj:0.02822)
x#125#6                                             1 	(obj:0.02261)
x#126#14                                            1 	(obj:0.03111)
x#127#38                                            1 	(obj:0.01785)
x#128#22                                            1 	(obj:0.00119)
x#129#18                                            1 	(obj:0.02091)
x#130#18                                            1 	(obj:0.02448)
x#131#2                                             1 	(obj:0.00646)
x#132#24                                            1 	(obj:0.03434)
x#133#40                                            1 	(obj:0.02414)
x#134#29                                            1 	(obj:0.02397)
x#135#2                                             1 	(obj:0.01615)
x#136#36                                            1 	(obj:0.02006)
x#137#26                                            1 	(obj:0.04573)
x#138#20                                            1 	(obj:0.02193)
x#139#40                                            1 	(obj:0.03366)
x#140#39                                            1 	(obj:0.00714)
x#141#23                                            1 	(obj:0.01088)
x#142#18                                            1 	(obj:0.0051)
x#143#14                                            1 	(obj:0.05066)
x#144#6                                             1 	(obj:0.01564)
x#145#26                                            1 	(obj:0.01037)
x#146#6                                             1 	(obj:0.00816)
x#147#24                                            1 	(obj:0.01088)
x#148#23                                            1 	(obj:0.02482)
x#149#12                                            1 	(obj:0.0068)
x#150#18                                            1 	(obj:0.02584)
x#151#26                                            1 	(obj:0.0323)
x#152#27                                            1 	(obj:0.01394)
x#153#38                                            1 	(obj:0.00952)
x#154#25                                            1 	(obj:0.00357)
x#155#27                                            1 	(obj:0.02652)
x#156#31                                            1 	(obj:0.0102)
x#157#31                                            1 	(obj:0.00748)
x#158#22                                            1 	(obj:0.0102)
x#159#39                                            1 	(obj:0.00646)
x#160#15                                            1 	(obj:0.03383)
x#161#15                                            1 	(obj:0.00697)
x#162#38                                            1 	(obj:0.01734)
x#163#14                                            1 	(obj:0.03876)
x#164#34                                            1 	(obj:0.01547)
x#165#2                                             1 	(obj:0.01343)
x#166#15                                            1 	(obj:0.00901)
x#167#20                                            1 	(obj:0.0085)
x#168#20                                            1 	(obj:0.01275)
x#169#12                                            1 	(obj:0.01088)
x#170#2                                             1 	(obj:0.01819)
x#171#6                                             1 	(obj:0.01309)
x#172#18                                            1 	(obj:0.02499)
x#173#34                                            1 	(obj:0.01972)
x#174#37                                            1 	(obj:0.13617)
x#175#31                                            1 	(obj:0.01122)
x#176#37                                            1 	(obj:0.06681)
x#177#40                                            1 	(obj:0.01326)
x#178#27                                            1 	(obj:0.00272)
x#179#19                                            1 	(obj:0.00867)
x#180#20                                            1 	(obj:0.01173)
x#181#26                                            1 	(obj:0.00544)
x#182#29                                            1 	(obj:0.00255)
x#183#8                                             1 	(obj:0.01598)
x#184#19                                            1 	(obj:0.00612)
x#185#17                                            1 	(obj:0.01887)
x#186#31                                            1 	(obj:0.017)
x#187#6                                             1 	(obj:0.01428)
x#188#24                                            1 	(obj:0.00799)
x#189#38                                            1 	(obj:0.0425)
x#190#22                                            1 	(obj:0.01275)
x#191#22                                            1 	(obj:0.02193)
x#192#27                                            1 	(obj:0.03366)
x#193#40                                            1 	(obj:0.0051)
x#194#22                                            1 	(obj:0.00697)
x#195#24                                            1 	(obj:0.01071)
x#196#29                                            1 	(obj:0.03179)
x#197#23                                            1 	(obj:0.02822)
x#198#29                                            1 	(obj:0.01241)
x#199#39                                            1 	(obj:0.03196)
x#200#29                                            1 	(obj:0.04675)
x#201#15                                            1 	(obj:0.04488)
x#202#17                                            1 	(obj:0.02108)
x#203#29                                            1 	(obj:0.05134)
x#204#32                                            1 	(obj:0.00697)
x#205#32                                            1 	(obj:0.0136)
x#206#8                                             1 	(obj:0.0051)
x#207#19                                            1 	(obj:0.02227)
x#208#33                                            1 	(obj:0.00646)
x#209#17                                            1 	(obj:0.01037)
x#210#25                                            1 	(obj:0.0374)
x#211#32                                            1 	(obj:0.02907)
x#212#17                                            1 	(obj:0.02703)
x#213#2                                             1 	(obj:0.00816)
x#214#27                                            1 	(obj:0.01921)
x#215#25                                            1 	(obj:0.0034)
x#216#31                                            1 	(obj:0.04454)
x#217#15                                            1 	(obj:0.02108)
x#218#31                                            1 	(obj:0.01326)
x#219#14                                            1 	(obj:0.00884)
x#220#22                                            1 	(obj:0.00697)
x#221#22                                            1 	(obj:0.03315)
x#222#17                                            1 	(obj:0.01071)
x#223#14                                            1 	(obj:0.06341)
x#224#28                                            1 	(obj:0.05729)
x#225#15                                            1 	(obj:0.03689)
x#226#36                                            1 	(obj:0.01615)
x#227#8                                             1 	(obj:0.01479)
x#228#39                                            1 	(obj:0.03536)
x#229#39                                            1 	(obj:0.00221)
x#230#20                                            1 	(obj:0.00697)
x#231#34                                            1 	(obj:0.01292)
x#232#33                                            1 	(obj:0.01564)
x#233#32                                            1 	(obj:0.01598)
x#234#40                                            1 	(obj:0.01989)
x#235#18                                            1 	(obj:0.02584)
x#236#34                                            1 	(obj:0.02176)
x#237#29                                            1 	(obj:0.03026)
x#238#23                                            1 	(obj:0.01972)
x#239#33                                            1 	(obj:0.01428)
x#240#8                                             1 	(obj:0.01445)
x#241#33                                            1 	(obj:0.00578)
x#242#12                                            1 	(obj:0.00867)
x#243#39                                            1 	(obj:0.03111)
x#244#38                                            1 	(obj:0.01887)
x#245#27                                            1 	(obj:0.0272)
x#246#18                                            1 	(obj:0.03587)
x#247#29                                            1 	(obj:0.02346)
x#248#8                                             1 	(obj:0.01615)
x#249#32                                            1 	(obj:0.03026)
x#250#2                                             1 	(obj:0.01207)
x#251#26                                            1 	(obj:0.02023)
x#252#19                                            1 	(obj:0.00833)
x#253#26                                            1 	(obj:0.01479)
x#254#36                                            1 	(obj:0.01751)
x#255#28                                            1 	(obj:0.07208)
x#256#33                                            1 	(obj:0.06392)
x#257#26                                            1 	(obj:0.01122)
x#258#12                                            1 	(obj:0.00816)
x#259#33                                            1 	(obj:0.00289)
x#260#17                                            1 	(obj:0.00578)
x#261#33                                            1 	(obj:0.0153)
x#262#25                                            1 	(obj:0.03111)
x#263#18                                            1 	(obj:0.01564)
x#264#23                                            1 	(obj:0.00425)
x#265#32                                            1 	(obj:0.00493)
x#266#40                                            1 	(obj:0.06749)
x#267#31                                            1 	(obj:0.01071)
x#268#32                                            1 	(obj:0.01224)
x#269#26                                            1 	(obj:0.00765)
x#270#25                                            1 	(obj:0.02652)
x#271#14                                            1 	(obj:0.05202)
x#272#25                                            1 	(obj:0.01479)
x#273#28                                            1 	(obj:0.09979)
x#274#14                                            1 	(obj:0.0663)
x#275#28                                            1 	(obj:0.07786)
x#276#26                                            1 	(obj:0.05253)
x#277#29                                            1 	(obj:0.01428)
x#278#12                                            1 	(obj:0.02686)
x#279#24                                            1 	(obj:0.01071)
x#280#2                                             1 	(obj:0.0323)
x#281#19                                            1 	(obj:0.00986)
x#282#6                                             1 	(obj:0.10438)
x#283#38                                            1 	(obj:0.02074)
x#284#25                                            1 	(obj:0.01598)
x#285#36                                            1 	(obj:0.01275)
x#286#36                                            1 	(obj:0.01938)
x#287#29                                            1 	(obj:0.01394)
x#288#33                                            1 	(obj:0.01326)
x#289#8                                             1 	(obj:0.02193)
x#290#24                                            1 	(obj:0.02193)
x#291#34                                            1 	(obj:0.03077)
x#292#15                                            1 	(obj:0.0425)
x#293#32                                            1 	(obj:0.00884)
x#294#34                                            1 	(obj:0.01683)
x#295#27                                            1 	(obj:0.02278)
x#296#19                                            1 	(obj:0.00952)
x#297#38                                            1 	(obj:0.01972)
x#298#8                                             1 	(obj:0.02669)
x#299#24                                            1 	(obj:0.00646)
x#300#15                                            1 	(obj:0.00374)
